
 102   30
  10   10   10   10   10   10   10   10   10   10   10   10   10   10   10   10   10   10   10   10   10   10   10   10   10   10   10   10   10   10

   0   0   0   0   0   0   0   0   0   0   0   0   0   0   0   0   0   0   0   0   0   0   0   0   0   0   0   0   0   0   0  29 2 3 4 5 6 7 8 9 10 11 12 13 14 15 16 17 18 19 20 21 23 24 25 26 30 33 36 37 45 
   1   3   0   0   0   1   1   0   0   0   2   0   0   1   2   0   0   1   0   0   0   0   0   0   0   0   0   0   0   0   0  16 101 77 68 63 60 57 56 54 48 46 44 40 39 35 34 22 
  10   0   2   0   0   0   0   0   0   0   0   0   1   0   9   0   0   0   0   0   0   0   0   0   0   0   1   0   0   0   0  18 101 96 77 75 69 68 67 66 65 61 60 59 58 56 49 39 31 29 
   3   7   0   4   0   0   0   1   1   1   0   0   0   3   0   0   0   0   0   1   0   0   0   0   0   0   0   0   0   0   0  18 101 76 74 68 66 65 64 63 60 59 54 49 47 46 44 38 34 29 
   3   0   0   0   0   0   6   0   0   0   0   0   0   0   0   0   1   0   0   0   0   0   0   3   0   0   0   0   0   0   0  15 77 76 69 67 66 65 64 59 56 51 49 47 41 34 28 
   8   0   0   0   0   0   0   0   4   0   0   0   0   0   7   0   0   8   0   0   0   0   0   5   0   0   0   0   0   0   0  14 101 100 69 68 62 59 57 55 54 42 41 39 35 34 
   8   0   0   0   0   0   0   0   0   0   0   0   0   0   0   0   0   0   0  10   0   0   0   0   0   1   0   0   0   0   0  14 77 75 74 68 65 60 58 52 49 47 46 44 29 27 
   3   0   0   0   1   0   0   0   0   0   0   1   0   8   8   0   0   0   0   0   0   0   0   0   0   0   0   0   4   0   0  13 77 69 65 60 57 53 50 49 46 43 40 38 31 
   2   0   0   0   0   0   8   0   0   0   0   0   0   0   0   0   5   0   0   6   0   0   0   0   0   0   0   0   0   0   0  13 76 75 74 69 66 61 58 55 52 44 43 35 28 
   7   8   0   0   0   0   0   0   0   0   0   0   0   0   0   0   0   0   0   6   0   0   0   0   0   0   0   0   0   0   0  18 101 96 94 76 75 74 69 68 66 65 64 63 60 59 58 49 40 38 
   5   0   0   0   0   0   0   0   0   0   0   0   0   0   0   0   0   0   0   8   0   0   0   0   0   0   0   0   0   1   0  13 101 96 77 75 73 69 68 67 66 58 39 35 32 
   6   0   6   0   0   0   7   0   0   0   3   5   9   0   0   0   9   0   0   0   0   0   0   0   0   0   0   0   0   0   0  15 100 98 97 96 77 74 73 70 68 65 60 59 46 40 39 
   1   0   0   0  10   0   0   0   0   0  10   0   0   0   0   0   0   0   0   0   3   0   0   0   0   0   0   0   0   0   0  13 101 98 75 74 68 67 65 54 53 52 49 39 38 
   5   0   0   0   0   0   0   0   0   0   0   0   0   0   0   0   0   0   1   0   0   0   0   0   1   0   0   0   0   0   0   7 101 98 69 63 49 40 22 
   8   0   0   0   0   0   0   0   0   0   0   0   0   0   0   0   0   0   3   0   0   0   0   0   0   6   7   0   0   0   3  18 98 97 96 95 94 77 75 74 73 69 67 64 60 55 52 51 49 47 
   7   0   0   0   6   0   0   0   0   0   0   0   0   0   0   0   6   0   0   0   0   0   0   0   0   0   0   0   0   0   0  17 99 98 96 95 90 75 73 69 66 65 64 59 57 56 55 53 52 
   4   0   0   9   0   0   0   0   0   0   0   0   0   0   0   0   0   0   0   0   0   0   0   0   3   7   0   0   0   0   0  18 100 99 98 97 95 94 90 77 74 73 68 67 64 60 55 54 52 47 
   1   3   0   0   0   5   4   0   0   0   0   0   0   0  10   0   0   0   0   0   0   0   0   0   0   0   0   0   0   2   0  15 96 95 94 77 76 75 72 67 65 62 59 56 55 48 47 
  10   0   0   0   0   0   0   0   0   0   0   0   0   0   0   1   0   0   0   0   1   0   1   0   0   0   9   1   0   0   0  11 94 90 76 70 69 67 65 55 49 44 34 
   7  10   0   0   0   0   0   0   0   0   0   0   0   0   5   0   0   6   7   4   0   1   0   0   0   0   0   0   6   0   0  16 100 98 96 94 92 89 82 76 70 68 67 64 57 56 52 51 
   6   6   0   0   7   0   0   0   0   7   0   0   8   0   0   0   0   6   0   0   0   0   0   0   0   0   0   9   0   0   0  10 96 95 94 86 74 73 72 69 64 35 
   4   0   0   2   0   0   0   0   0   0   0  10   0   0   0   0   0   0   0   8   0   0   0   0   0   0   0   0   0   0   0  13 100 99 97 96 95 90 82 74 67 66 59 53 52 
   4   0   0   0   0   0   0   0   7   0   0   0   0   0   0   0   0   0   0   0   0   6   7   0  10   0   0   0   4   0   0   9 98 97 96 86 73 71 59 53 39 
   2   0   0   0   5   0   0   0   0   0   0   0   0   0   0   9   0   0   0   0   0   0   0   0   0   0   0   4   0   0   0  14 99 98 96 95 94 92 91 86 70 68 65 55 52 49 
   4   0   3   0   0   0   0   0   0   0   0   0   0   0   0   0   0   0   0   7   0   0   0   0   0   0   0   0   0   0   0   7 97 89 88 67 63 53 39 
   5   0   3   0   0   0   0   0   0   0   0   0   0   0   0   0   9   6   0   6   0   9   6   0   0   0   0   0   0   0   0  14 100 96 95 93 91 90 86 75 73 72 65 64 59 49 
   4   0   0   5   0   0   0   0   0   5   0   0   0   0   0   0   0   0   0   0   0   9   0   0   0   0   0   0   0   0   0  11 94 93 88 83 80 73 69 66 63 56 50 
   5   0   0   0   0   0   0   0   0   0   0   0   0   0   0   0   0   0   0   0   0   5   0   0   0   0   0   0   0   0   0  14 100 98 96 92 91 90 82 79 73 71 68 60 57 54 
   6   4   0   6   0   0   0  10   0   0   0   0   6   0   0   0   0   0   0   0   0   0   0   0   0   0   0   0   0   0   1  12 100 98 97 93 90 82 78 73 72 57 55 53 
   5   0   7   0   0   0   8   0   0   0   0   5   0   0   0   0   0   8   0   0   4   0   0   0   0   8   0   0   0   7   0  18 98 97 96 95 94 92 91 90 87 86 84 80 72 71 70 66 65 64 
   5   0   0   0   0   0   0   0   0   0   0   0   0   0   0   0   0   0   0   0   8   0   0   0   0   8   0   0   0   0   0  10 98 95 90 87 86 84 74 64 52 47 
   3   0   0   0   6   0   0   0   0   0   0   0   7   0   0   0   0   0   0   0   0   0   0   0   0   0   0   0   0   0   0   9 100 95 94 86 65 56 52 51 49 
   7   0   8   0   0   0   0   0   0   0   0   0   8   0   0   7   3   0   7   0   0   0   0   5   0   0   0   0   0   0   6  10 100 98 96 92 81 74 70 68 66 46 
   1   0   5   0   5   0   0   5   0   7   6   8   0   0   0   2   6   0   0   0   0   0   0   0   0   0   0   0   0   0   0  13 99 98 96 95 92 91 88 87 83 82 75 73 52 
   2   0   0   0   0   0   0   0   0   0   0   0   8   0   0   0   0   0   0   0   0   0   9   0   0  10   0   0   0   0   0  11 99 97 93 92 91 90 81 80 70 65 49 
   4   0   0   0   0   0   0   0   8   0   0   0   0   6   0   5   0   0   0   0   6   0   0   0  10   0   3   0   0   0   0  14 96 95 94 90 88 86 85 83 82 81 71 70 69 66 
   3   4   0   0   0   0   8   0   0   0   0   0   0   0   0   0   0   0   0   0   0   0   0   8   0   0   0   0   0   0   0   8 96 88 86 84 83 80 61 50 
   4   0   0   0   7   0   0   8   0   0   0   0   0   0   0   0   0   0   0   0   0   0   0   0   0   0   0   0   0   0   0  12 100 95 90 89 88 86 83 82 80 73 70 56 
   8   0   0   0   0   0   0   0   0   6   0   0   0   0   0   6   0   0   0   0   0   0   0   0   0   0   0   0   0   0   0   8 99 95 94 93 83 80 76 50 
   7   0   7   7   0   0   0   0   5   0   0   0   0   0   0   0   0   0   0   0   0   6   6   0   0   0   0   0   0   0   0   7 99 90 85 83 82 67 52 
   6   0   0   0   0   0   0   0   0   8   0   0   0   0   0   0   0   0   0   0   0   0   0   0   0   0   0   0   0   0   0  13 94 92 91 90 88 87 86 84 83 82 80 73 71 
   3   0   0   0   0   0   0   0   0   0   0   0   0   0   5   0   0   0   0   0   7   0   0   0   6   0   0   4   0   8   0  11 93 92 87 86 85 83 82 80 78 72 66 
   9   0   0   0   0   9   0   0   0   0   0   0   0   0   6   0   0   0   0   0   0   0   0   0   0   5   0   0   0   0   0  10 96 94 93 89 88 83 82 80 78 63 
   6   4   0  10   0   0   0   0   7   0   0   0   0   0   0   0   3   9   0   4   0   0  10   0   0   0   0   0   0   0   0  11 95 92 91 87 86 85 82 80 79 78 73 
   5   0   0   0   0   0   4   0   0   4   0   0   0   0   0   5   0   7   0   0   0   0   0   0   0   0   0   0   0   0   0  11 96 94 90 89 87 85 84 83 81 80 70 
  10   0   0   0   0   0   0   0   0   0   0   6   0   0   0   4   0   0   0   0   0   0   0   0   9   0   6   0   0   7   0   6 91 87 82 80 78 55 
   4   0   0   0   0   0   0   0   0   0   7   0   0   0   0   0   0   0   0   0   0   0   0   0   0   0   0   0   0   0   0   8 92 88 83 82 81 80 78 70 
   5   0   0   0   0   0   0   0   0   0   0   6   3   0   0   0   6   0   0   0   0   0   0   0   0   0   0   0   0   0   0   6 98 84 83 82 71 66 
   2   0   0   6   0   0   0   0   0   0   7   0   0   0   0   0   0   5   0   0   0   0   0   0   0   0   0   0   3   0   0   7 89 88 87 85 83 82 71 
   2   0   0   8   0   0   0   0   0   0   0   0   0   0   0   0   0   0   0   0   0   0   5   0   0   0   0   4   0   0   0   6 92 91 90 82 81 64 
   7   0   0   0   0   0   0   0   0   0   0   0   0   0   0   0   0   4   0   0   6   0   0   0   0   7   0   0   0   0   0   7 90 88 87 85 80 79 78 
   4   0   0   0   9   0   0   0   0   9   0   0   0   0   4   0   0   0   0   0   0   6   0   7   0   0   5   0   0   0   0   5 93 80 79 72 71 
   3   0   0   0   0   0   0   0   0   0   0   0   0   0   0   0   0   0   0   0   0   0   0   0   6   0   0   0   0   8   0   5 94 91 84 80 70 
   3   0   7   0   0   4   0   0   0   0   0   0   0   7   0   0   0   0   0   0   0   5   0   0   0   0   0   9   0   0   0   5 86 85 84 80 72 
   4   0   0   0   0   0   0   4   0   0   0   0   0   0   0   0   0   0   0   0   9   0   0   0   0   5   0   0   0   0   0   5 89 85 84 83 79 
  10   0   0   0   0   0   4   0   0   0   0   6   0   7   0   7   0   0   0   0   0   7   0   0   0   0   0   0   0   0   0   5 97 87 81 79 78 
   9  10   3   5   0   0   0   0   0   0   0   0   0   0   0   0   0   0   0   0   0   0   0   5   0   5   0   0   0   0   7   5 88 87 86 83 81 
   7   0   0   0   0   0   0   0   8   4   0   0   9   0   0   0   0   0   0   0   0   0   0   0   0   0   0   5   5   0   0   5 95 89 86 80 78 
   3   0   0   0   0   0   0   0   0   0   0   0   0   0   0   0   9   0   0   0   0   0   0   5   0   0   0   0   0   0   0   4 88 83 80 79 
   7   8   0   0   0   0   0   0   0   0   0   0   0   0   2   0   0   0   0   0   0   0   0   0   0   0   0   0   0   0   0   3 84 83 78 
   9   0   0   0   8   0   0   0   9   0   0   0   0   0   0   0   0   0   0   0   0   7   7   0   0   0   0   0   0   0   0   3 89 82 79 
   3   0   0   0   0   0   0   0   0   7   0   0   0   0   0  10   0   6   0   0   0   0   0   0   0   0   0   0   0   0   0   3 98 91 90 
   9   0   0   0   0   0   0   0   0   0   0   0   0   0   0   7   0   0   0   0   0   0   0   0   0   0   0   0   0   0   0   2 86 70 
   1   0   0  10   0   8   0   0   0   0   0   0   0   0   0   0   0   0   0   0   0   0   0   0   0   4   0   0   0   0   0   2 85 78 
   7   5   9   4   0   0   0   0   0   0   0   0   0   0   0   0   0   0   0   0   0   0   0   0   0   0   0   0   0   0   0   2 82 78 
  10   0   0   0   0   9  10  10   0   0   0   0   0   0   0   0   0   0   0   0   0   0   5   0   0   0   0   0   0   0   0   2 89 79 
   2   0   0   0   0   0   0   5   0   4   0   0   9   0   0   0  10   0   7   0   0   0   0   0   0   0   0   0   0   0   0   2 87 86 
   2   0   7   0   6   0   0   6   0   0   0   0   0   0   0   0   6   0   0   0   0   0   0   0   0   9   0   0   0   0   0   2 93 88 
   5   0   3   0   0   7   0   0   0   0   0   0   0   0   0   6   0   0   0   0   5   0   5   0   0   0   0   0   0   0   0   2 92 84 
   5   0   5   0   0   0   5   0   0   0   0   0   5   0   0   0   0   0   0   0   0   0   4   0   0   5   0   0   0   0   0   1 79 
   1   0  10   3   0   0   0   0   0   0   0   7   0   0   0   0   0   0   0   0   6   0   0   0   0   0   0   0   0   0   0   1 78 
   1   5   0   0   0   0   0   0   0   0   0   0   5   0   0   4   0   4   0   0   0   0   0   0   0   0   0   0   0   0   0   1 81 
   1   0   0   0   0   0   0   3   0   0   0   0   4   0   0  10   0   0   0   0   0   8   0   0   0   0   0   0   0   0   0   1 81 
   9   0   0   0   0   5   0   0   0   0   0   0   0   0   5   0   0   0   0   6   4   0   0   5   0   0   0   0   0   0   6   1 91 
  10   0   0   0   0   0   0   0   0   0   0   5   0   0   0   8   0   0   0   3   0   0   7   0   0   0   0   0   0   0   7   1 84 
   2   0   0   0   0   0   0   0   0   0   0   0   0   0   7   0   0   0   0   0   0   0   8   0   0   0   0   8   0   7  10   1 84 
   9   7   0   0   0   0   0   0   0   0   6   0   0   5   0   0   0   0   6   0   0   0   0   0   0   0   4   0   0   0   0   1 86 
   4   6   0   0   0   0   0   0   5   0   0   4   6   5   0   0   0   0   0   0   0   0   0   0   0   0   5   0   0   0   0   1 102
   8   0   0   0   0   0   0   0   0   0   0   0   0   0   0   0   0   0   0   0   5   0   0   0   0   0   0   0  10   0   0   1 102
   8   6   6   3   0   0   0   5   0   0   0   0   0   0   0   5   0   0   0   0  10   0   0   0   0   0   0   0   0   0   0   1 102
   9   0   0   7   0   0   0   0   0   0   4   0   0   0   0   0   0   0   8   0   0   0   0   0   0   0   7   0   0   0   0   1 102
   2   0   0   0   2   0   6   0   0  10   0   0   4   0   0   0   0   0   0   0  10   0   5   0   4   0   0   0   0   0   0   1 102
   7   0   0   0   0   0   0   0   0   0   0  10   0   0   0   0   0   0   0   0   0   0   5   0   0   0   0   0   0   0   0   1 102
   8   0   8   0   0   0   0   0   0   0   5   0   0   0   0   0   0   0   0   0   0   0   0   0   0   0   0   0   0   0   0   1 102
   1   0   6   0   0   0   0   0   0   0   0   0   0   9   0   0   0   0   0   0   6   0   0   0   0   0   0   0   0   0   0   1 102
   9   0   0   0   0   0   0   0   6   0   0   0   0   0   0   0   0   0   0   0   0   0   0   0   0   0   0   0   0   0   0   1 102
   1   0   0   7   0   0   0   0   0   6   0   0   0   0   0   0   5   0   0   0   0   4   0   0   0   0   7   0   0   3   0   1 102
   1   0   0   0   4   0   0   0   0   0   0   0   4   0   0   0   0   0   0   0   0   0   0   0   0   0   0   7   0   0   0   1 102
   2   0   0   0   0   0   7   0   0   0   0   0   0   0   0   0   0   0   0   0   0   0   0   0   0   0   0   0   0   0   8   1 102
   9   0   0   7   4   0   0   0   0   0   0   0   0   0   0   0   0   0   0   0   0   0   0   0   0   6   0   0   0   0   0   1 102
   7   0   0   0  10   0   0   0   0   0   0   0   0   0   0   0   0   0   0   0   0   0   0  10   0   0   0   0   0   0   0   1 102
   3   0   0   0   0   0   0   0   0   0   0   6   0   0   0   0   0   0   0   0   0   0   0   0   0   0   0   0   0   0   0   1 102
   1   0   0   5   0   0   0   0   0   0   0   5   0   0   0   0   0   0   0   0   0   0   0   0   0   0   0   0   8   0   0   1 102
   7   0   0   0   0   0   0   0   0   0   0   0   0   0   0   0   0   7   0   0   0   0   0   0   0   0   0   0   0   0   0   1 102
   5   0   0   0   0   0   0  10   0   0   0   0   0   0   0   0   0   0   8   0   0   0   0   0   5   0   0   0   0   7   0   1 102
   7   0   0   0   0   0   0   4   0   0  10   0   0   0   0   0   0   0   4   0   0   0   0   7   0   0   8   0   0   9   0   1 102
   5   0   0   0   0   0   0   0   0   0   0   0   0   0   0   0   0   0   0   0   0   0   0   0   0   0   0   9   0   0   0   1 102
   3   0   0   0   0   0   0   0   0   0   0   0   0   0   0   0   0   0   0   0   6   0   0   0   0   0   0   0   8   0   0   1 102
   6   0   0   0   0   0   0   7   0   0   0   0   0   0   8   0   0   7   6   6   6   7   0   0   0   0  10   0   0   0   0   1 102
   2   0   9   0   6   6   0   0   0   0   0   0   0   0   0   0   0   0   9   9   0   4   0   0   0   4   0   0   0   6   0   1 102
   7   0   6   0   0   0   0   0   0   0   0   0   0   9   0   0   0   0   0   0   0   0   0   0   0   0   0   0   6   7   0   1 102
   0   0   0   0   0   0   0   0   0   0   0   0   0   0   0   0   0   0   0   0   0   0   0   0   0   0   0   0   0   0   0   0 
